 vasp.6.1.2 22Jul20 (build Aug 13 2020 05:52:35) gamma-only

 executed on             LinuxIFC date 2025.03.12  16:03:02

 INCAR:
 POTCAR:    PAW_PBE Mo_sv 02Feb2006
 POTCAR:    PAW_PBE N 08Apr2002
 POTCAR:    PAW_PBE Si 05Jan2001
 POTCAR:    PAW_PBE Ni 02Aug2007
 POTCAR:    PAW_PBE O 08Apr2002
 POTCAR:    PAW_PBE Te 08Apr2002
 POTCAR:    PAW_PBE H 15Jun2001
|           W    W    AA    RRRRR   N    N  II  N    N   GGGG   !!!           |
|           W    W   A  A   R    R  NN   N  II  NN   N  G    G  !!!           |
|           W    W  A    A  R    R  N N  N  II  N N  N  G       !!!           |
|           W WW W  AAAAAA  RRRRR   N  N N  II  N  N N  G  GGG   !            |
|           WW  WW  A    A  R   R   N   NN  II  N   NN  G    G                |
|           W    W  A    A  R    R  N    N  II  N    N   GGGG   !!!           |
|     You use a magnetic or noncollinear calculation, but did not specify     |
|     the initial magnetic moment with the MAGMOM tag. Note that a            |
|     default of 1 will be used for all atoms. This ferromagnetic setup       |
|     may break the symmetry of the crystal, in particular it may rule        |
|     out finding an antiferromagnetic solution. Thence, we recommend         |
|     setting the initial magnetic moment manually or verifying carefully     |
|     that this magnetic setup is desired.                                    |

   TITEL  = PAW_PBE Mo_sv 02Feb2006
   POMASS =   95.940; ZVAL   =   14.000    mass and valenz
   ENMAX  =  242.676; ENMIN  =  182.007 eV

   TITEL  = PAW_PBE N 08Apr2002
   POMASS =   14.001; ZVAL   =    5.000    mass and valenz
   ENMAX  =  400.000; ENMIN  =  300.000 eV

   TITEL  = PAW_PBE Si 05Jan2001
   POMASS =   28.085; ZVAL   =    4.000    mass and valenz
   ENMAX  =  245.345; ENMIN  =  184.009 eV

   TITEL  = PAW_PBE Ni 02Aug2007
   POMASS =   58.690; ZVAL   =   10.000    mass and valenz
   ENMAX  =  269.532; ENMIN  =  202.149 eV

[...]

   TITEL  = PAW_PBE Te 08Apr2002
   POMASS =  127.600; ZVAL   =    6.000    mass and valenz
   ENMAX  =  174.982; ENMIN  =  131.236 eV

   TITEL  = PAW_PBE H 15Jun2001
   POMASS =    1.000; ZVAL   =    1.000    mass and valenz
   ENMAX  =  250.000; ENMIN  =  200.000 eV

  PAW_PBE Mo_sv 02Feb2006               :
  PAW_PBE N 08Apr2002                   :
  PAW_PBE Si 05Jan2001                  :
  PAW_PBE Ni 02Aug2007                  :
  PAW_PBE O 08Apr2002                   :
  PAW_PBE Te 08Apr2002                  :
  PAW_PBE H 15Jun2001                   :

 POSCAR: Generated by VASPKIT code
  positions in direct lattice
 exchange correlation table for  LEXCH =        8
   RHO(1)=    0.500       N(1)  =     2000
   RHO(2)=  100.500       N(2)  =     4000

 ion  position               nearest neighbor table
   1  0.167  0.000  0.610-  29 2.10  46 2.11  13 2.11  50 2.11  33 2.11  17 2.11   8 2.93   5 2.93
                             6 2.93   9 2.93  11 2.93  10 2.93
   2  0.166  0.500  0.610-  45 2.10  14 2.10  30 2.10  18 2.10  49 2.11  34 2.12   7 2.93  10 2.93
                             6 2.93   9 2.93  12 2.93   5 2.94
   3  0.667  0.000  0.610-  31 2.10  15 2.10  35 2.10  19 2.11  48 2.11  52 2.12   8 2.93   7 2.93
                             9 2.93  11 2.93  12 2.93   6 2.94
   4  0.667  0.500  0.610-  32 2.10  47 2.10  51 2.10  36 2.11  16 2.11  20 2.12   5 2.93   7 2.93
                            11 2.93  10 2.93  12 2.93   8 2.94
   5  0.334  0.333  0.610-  13 2.10  47 2.10  51 2.10  17 2.11  30 2.11  34 2.12   4 2.93   1 2.93
                            11 2.93   9 2.93  12 2.93   2 2.94
   6  0.333  0.833  0.610-  14 2.10  29 2.10  18 2.10  33 2.11  48 2.11  52 2.12   2 2.93   1 2.93
                            10 2.93  11 2.93  12 2.93   3 2.94
   7  0.833  0.333  0.610-  15 2.10  32 2.11  45 2.11  36 2.11  19 2.11  49 2.11   2 2.93   3 2.93
                             4 2.93  10 2.93   9 2.93  11 2.93
   8  0.834  0.834  0.610-  46 2.10  31 2.10  16 2.10  35 2.10  50 2.11  20 2.12   1 2.93   9 2.93
                             3 2.93  10 2.93  12 2.93   4 2.94
   9  0.000  0.167  0.610-  45 2.10  13 2.11  35 2.11  31 2.11  17 2.11  49 2.11   8 2.93   3 2.93
                             1 2.93   5 2.93   2 2.93   7 2.93
  10  1.000  0.667  0.610-  46 2.10  32 2.11  14 2.11  18 2.11  36 2.11  50 2.11   2 2.93   6 2.93
                             7 2.93   8 2.93   4 2.93   1 2.93
  11  0.500  0.166  0.610-  47 2.10  15 2.11  29 2.11  51 2.11  33 2.11  19 2.11   5 2.93   4 2.93
                             6 2.93   3 2.93   1 2.93   7 2.93
  12  0.500  0.667  0.610-  48 2.10  20 2.10  52 2.10  34 2.10  16 2.10  30 2.10   5 2.93   4 2.93
                             2 2.93   6 2.93   3 2.93   8 2.93
  13  0.167  0.167  0.574-  65 1.76   5 2.10   9 2.11   1 2.11
  14  0.167  0.667  0.574-  66 1.76   6 2.10   2 2.10  10 2.11
  15  0.667  0.167  0.574-  67 1.76   7 2.10   3 2.10  11 2.11
  16  0.667  0.667  0.574-  68 1.76  12 2.10   8 2.10   4 2.11
  17  0.167  0.167  0.646-  61 1.74   5 2.11   9 2.11   1 2.11
  18  0.167  0.667  0.646-  62 1.74   2 2.10   6 2.10  10 2.11
  19  0.667  0.167  0.646-  63 1.74   3 2.11  11 2.11   7 2.11
  20  0.665  0.667  0.646-  64 1.71  12 2.10   8 2.12   4 2.12
  21  0.167  0.000  0.711-  69 1.77  78 1.77  61 1.77
  22  0.166  0.500  0.711-  70 1.75  62 1.78  77 1.78
  23  0.667  0.001  0.711-  80 1.75  71 1.78  63 1.78
  24  0.667  0.500  0.711-  64 1.75  79 1.78  72 1.78
  25  0.166  0.000  0.510-  65 1.76  82 1.76  73 1.77
  26  0.166  0.500  0.510-  66 1.76  81 1.76  74 1.77
  27  0.666  0.000  0.510-  67 1.76  84 1.76  75 1.77
  28  0.666  0.500  0.510-  68 1.76  83 1.76  76 1.77
  29  0.333  1.000  0.574-  73 1.76   1 2.10   6 2.10  11 2.11
  30  0.333  0.500  0.574-  74 1.76  12 2.10   2 2.10   5 2.11
  31  0.833  0.000  0.574-  75 1.76   3 2.10   8 2.10   9 2.11
  32  0.833  0.500  0.574-  76 1.76   4 2.10   7 2.11  10 2.11
  33  0.333  1.000  0.646-  69 1.74   6 2.11  11 2.11   1 2.11
  34  0.335  0.502  0.646-  70 1.71  12 2.10   5 2.12   2 2.12
  35  0.833  0.000  0.646-  71 1.74   8 2.10   3 2.10   9 2.11
  36  0.833  0.500  0.646-  72 1.74  10 2.11   4 2.11   7 2.11
  37  0.333  0.333  0.711-  70 1.75  79 1.78  61 1.78
  38  0.334  0.834  0.711-  80 1.75  62 1.78  69 1.78
  39  0.833  0.333  0.711-  72 1.77  63 1.77  77 1.77
  40  0.834  0.833  0.711-  64 1.75  71 1.78  78 1.78
  41  0.334  0.334  0.510-  83 1.76  74 1.76  65 1.77
  42  0.334  0.834  0.510-  84 1.76  73 1.76  66 1.77
  43  0.834  0.334  0.510-  81 1.76  76 1.76  67 1.77
  44  0.834  0.834  0.510-  82 1.76  75 1.76  68 1.77
  45  0.000  0.333  0.574-  81 1.76   9 2.10   2 2.10   7 2.11
  46  0.000  0.833  0.574-  82 1.76  10 2.10   8 2.10   1 2.11
  47  0.500  0.333  0.574-  83 1.76  11 2.10   4 2.10   5 2.10
  48  0.500  0.833  0.574-  84 1.76  12 2.10   3 2.11   6 2.11
  49  0.000  0.334  0.646-  77 1.74   2 2.11   9 2.11   7 2.11
  50  1.000  0.833  0.646-  78 1.74   8 2.11   1 2.11  10 2.11
  51  0.500  0.333  0.646-  79 1.74   5 2.10   4 2.10  11 2.11
  52  0.500  0.832  0.646-  80 1.71  12 2.10   3 2.12   6 2.12
  53  1.000  0.166  0.711-  71 1.77  61 1.77  77 1.77
  54  0.001  0.667  0.711-  62 1.77  78 1.77  72 1.77
  55  0.500  0.167  0.711-  79 1.77  63 1.77  69 1.77
  56  0.500  0.667  0.712- 125 1.03  64 1.88  80 1.88  70 1.88
  57  0.500  0.166  0.510-  73 1.76  67 1.76  83 1.77
  58  0.500  0.666  0.510-  74 1.76  68 1.76  84 1.77
  59  1.000  0.166  0.510-  75 1.76  65 1.76  81 1.77
  60  1.000  0.666  0.510-  76 1.76  66 1.76  82 1.77
  61  0.166  0.165  0.696-  17 1.74  21 1.77  53 1.77  37 1.78  70 2.87  69 2.91  78 2.92  71 2.92
                            77 2.94  79 2.94
  62  0.166  0.667  0.696-  18 1.74  54 1.77  38 1.78  22 1.78  78 2.92  72 2.92  70 2.93  80 2.94
                            77 2.94  69 2.94
  63  0.667  0.168  0.696-  19 1.74  39 1.77  55 1.77  23 1.78  80 2.87  72 2.91  77 2.92  79 2.92
                            69 2.94  71 2.94
  64  0.676  0.667  0.695-  20 1.71  40 1.75  24 1.75  56 1.88  78 2.87  72 2.87  71 2.94  79 2.94
                            70 3.08  80 3.08
  65  0.167  0.167  0.524-  13 1.76  25 1.76  59 1.76  41 1.77  74 2.92  73 2.92  81 2.92  83 2.92
                            75 2.94  82 2.94
  66  0.167  0.667  0.524-  14 1.76  26 1.76  60 1.76  42 1.77  82 2.92  73 2.92  84 2.92  74 2.92
                            76 2.94  81 2.94
  67  0.667  0.167  0.524-  15 1.76  27 1.76  57 1.76  43 1.77  83 2.92  76 2.92  81 2.92  75 2.92
                            84 2.94  73 2.94
  68  0.667  0.667  0.524-  16 1.76  28 1.76  58 1.76  44 1.77  75 2.92  84 2.92  76 2.92  82 2.92
                            74 2.94  83 2.94
  69  0.333  0.001  0.696-  33 1.74  21 1.77  55 1.77  38 1.78  80 2.87  78 2.91  61 2.91  79 2.92
                            63 2.94  62 2.94
  70  0.325  0.491  0.695-  34 1.71  37 1.75  22 1.75  56 1.88  77 2.87  61 2.87  62 2.93  79 2.94
                            64 3.08  80 3.08
  71  0.834  0.001  0.696-  35 1.74  53 1.77  23 1.78  40 1.78  77 2.92  61 2.92  80 2.93  64 2.94
                            63 2.94  78 2.94
  72  0.835  0.500  0.696-  36 1.74  39 1.77  54 1.77  24 1.78  64 2.87  63 2.91  77 2.91  62 2.92
                            78 2.94  79 2.94
  73  0.333  1.000  0.524-  29 1.76  57 1.76  42 1.76  25 1.77  82 2.92  66 2.92  83 2.92  65 2.92
                            84 2.94  67 2.94
  74  0.333  0.500  0.524-  30 1.76  58 1.76  41 1.76  26 1.77  81 2.92  65 2.92  84 2.92  66 2.92
                            68 2.94  83 2.94
  75  0.833  0.000  0.524-  31 1.76  59 1.76  44 1.76  27 1.77  81 2.92  67 2.92  84 2.92  68 2.92
                            65 2.94  82 2.94
  76  0.833  0.500  0.524-  32 1.76  60 1.76  43 1.76  28 1.77  67 2.92  83 2.92  68 2.92  82 2.92
                            66 2.94  81 2.94
  77  0.999  0.332  0.696-  49 1.74  39 1.77  53 1.77  22 1.78  70 2.87  72 2.91  63 2.92  71 2.92
                            61 2.94  62 2.94
  78  0.002  0.834  0.696-  50 1.74  21 1.77  54 1.77  40 1.78  64 2.87  69 2.91  61 2.92  62 2.92
                            72 2.94  71 2.94
  79  0.500  0.333  0.696-  51 1.74  55 1.77  37 1.78  24 1.78  63 2.92  69 2.92  70 2.94  64 2.94
                            61 2.94  72 2.94
  80  0.500  0.842  0.695-  52 1.71  23 1.75  38 1.75  56 1.88  63 2.87  69 2.87  71 2.93  62 2.94
                            70 3.08  64 3.08
  81  0.000  0.333  0.524-  45 1.76  43 1.76  26 1.76  59 1.77  74 2.92  65 2.92  75 2.92  67 2.92
                            76 2.94  66 2.94
  82  0.000  0.833  0.524-  46 1.76  44 1.76  25 1.76  60 1.77  66 2.92  73 2.92  68 2.92  76 2.92
                            65 2.94  75 2.94
  83  0.500  0.333  0.524-  47 1.76  41 1.76  28 1.76  57 1.77  67 2.92  76 2.92  73 2.92  65 2.92
                            68 2.94  74 2.94
  84  0.500  0.833  0.524-  48 1.76  42 1.76  27 1.76  58 1.77  75 2.92  68 2.92  66 2.92  74 2.92
                            73 2.94  67 2.94
  85  1.000  1.000  0.350- 102 1.87 105 1.87 100 1.87 122 3.33 124 3.33 121 3.33
  86  1.000  0.500  0.350-  99 1.87 106 1.87 101 1.87 123 3.33 121 3.33 122 3.33
[...]
      3.36776      5.86108     22.56410        -0.002662     -0.001871     -0.200263
      1.69258      0.00096     24.84794         0.000414      0.000281     -0.040414
     -0.84642      4.39269     24.84615         0.001210      0.005110     -0.050003
      6.76560      0.00448     24.84532         0.004125     -0.003121     -0.048693
      4.23415      4.39665     24.84529        -0.004070     -0.001986     -0.048859
      1.68195      0.00097     17.80361         0.098382     -0.004475      0.151774
     -0.85591      4.39609     17.80303         0.095970     -0.003923      0.149834
      6.75726      0.00132     17.80277         0.097803     -0.001281      0.148274
      4.21992      4.39570     17.80287         0.100586     -0.004552      0.153306
     -1.69627      8.78959     20.06200         0.005232     -0.003547      0.262036
      0.84162      4.39458     20.05916         0.006507     -0.000928      0.254700
      8.45622      0.00274     20.05982         0.009631      0.003869      0.258162
      5.91688      4.39419     20.06195         0.006346     -0.004022      0.261989
     -1.69087      8.78866     22.57063         0.007763     -0.003863     -0.187237
      0.85419      4.40993     22.56516         0.003455      0.001593     -0.203821
      8.45837      0.00006     22.56583         0.006946      0.008212     -0.191201
      5.91880      4.39527     22.57053        -0.003125      0.002469     -0.187214
      1.69058      2.92799     24.84610         0.003307      0.003230     -0.049841
     -0.84635      7.32995     24.84548         0.000733     -0.004580     -0.049057
      6.76789      2.93112     24.84791         0.000584      0.000354     -0.040774
      4.23433      7.32614     24.84518        -0.004366      0.002109     -0.048474
      1.69752      2.93768     17.80310        -0.052945     -0.084710      0.152492
     -0.84075      7.33329     17.80280        -0.054556     -0.080733      0.148137
      6.77257      2.93805     17.80364        -0.050864     -0.083566      0.151319
      4.23512      7.33353     17.80270        -0.051766     -0.081422      0.151227
     -1.68948      2.92758     20.06221        -0.005939      0.010929      0.261136
     -4.22672      7.32285     20.06191        -0.005720      0.011281      0.261858
      3.38758      2.92411     20.06008        -0.000092      0.002454      0.258912
      0.84821      7.32257     20.05883        -0.003808      0.008220      0.254252
     -1.69015      2.93226     22.57087         0.003866      0.006863     -0.188858
      5.91951      7.32550     22.57051        -0.007275      0.000935     -0.187669
      3.38389      2.93048     22.56613         0.003129     -0.004806     -0.191561
      0.85477      7.31126     22.56428        -0.000202      0.000847     -0.201223
      9.30293      1.46175     24.84313        -0.000141      0.000118     -0.045587
     -3.37732      5.86107     24.84293         0.001533      0.000974     -0.044640
      4.22763      1.47028     24.84297         0.000361      0.001530     -0.045089
      1.69330      5.86196     24.87710        -0.002616     -0.002615     -0.904483
      4.23359      1.45567     17.80317        -0.043329      0.085435      0.153383
      1.69568      5.85141     17.80170        -0.046439      0.089361      0.151148
      9.30875      1.45685     17.80324        -0.046287      0.087156      0.150932
      6.77021      5.85144     17.80305        -0.045441      0.087517      0.151450
[...]
      3.49039      2.85506     14.92373        -0.210814     -0.174322      0.134916
      0.95279      7.25031     14.92383        -0.216338     -0.161738      0.117623
      0.85732      1.59522     14.92363         0.248392     -0.106832      0.118437
     -1.68032      5.99031     14.92381         0.265055     -0.125483      0.116354
      5.93240      1.59524     14.92363         0.264964     -0.117090      0.095549
      3.39483      5.99035     14.92388         0.255553     -0.095521      0.134189
      0.72731      4.33994     14.92378        -0.044904      0.270417      0.135642
     -1.81024      8.73510     14.92365        -0.023460      0.293379      0.117273
      5.80240      4.33992     14.92360        -0.031765      0.269258      0.118806
      3.26497      8.73509     14.92386        -0.030944      0.288016      0.094661
     -0.00001      2.93010     13.78730         0.112394      0.040273     -0.040754
     -2.53757      7.32528     13.78728        -0.000198     -0.002898     -0.020511
      5.07511      2.93009     13.78729        -0.095543      0.076885     -0.041933
      2.53757      7.32529     13.78731        -0.021533     -0.121729     -0.037172
      1.69512      5.86382     25.88872        -0.003412     -0.003203      0.935371
    total drift:                               -0.000147     -0.000232     -0.013027

  FREE ENERGIE OF THE ION-ELECTRON SYSTEM (eV)
  free  energy   TOTEN  =      -982.55723258 eV

  energy  without entropy=     -982.51730854  energy(sigma->0) =     -982.53727056

 d Force =-0.6107026E-02[-0.374E-01, 0.252E-01]  d Energy =-0.4780364E-02-0.133E-02
 d Force =-0.1994327E+02[-0.201E+02,-0.198E+02]  d Ewald  =-0.1994137E+02-0.190E-02

 Finite differences progress:
  Degree of freedom:   3/  3
  Displacement:        2/  2
  Total:               6/  6

 SECOND DERIVATIVES (NOT SYMMETRIZED)
             125X        125Y        125Z
125X    -3.429660    0.001284   -0.062305
125Y    -0.011816   -3.422896   -0.058978
125Z    -0.055371   -0.067959  -39.134789

 Eigenvectors and eigenvalues of the dynamical matrix

   1 f  =   97.798767 THz   614.487775 2PiTHz 3262.215620 cm-1   404.463334 meV
             X         Y         Z           dx          dy          dz
      1.691542  0.000370 21.314567            0           0           0
     -0.849954  4.397105 21.310203            0           0           0
      6.770043  0.003150 21.309770            0           0           0
      4.229855  4.391207 21.309819            0           0           0
      1.695632  2.928164 21.310200            0           0           0
     -0.849309  7.324430 21.309906            0           0           0
      6.767435  2.930795 21.314565            0           0           0
      4.230654  7.330319 21.309679            0           0           0
     -0.844123  1.467049 21.313813            0           0           0
      6.765112  5.860083 21.313657            0           0           0
      4.230891  1.462888 21.313707            0           0           0
      1.692263  5.860113 21.301275            0           0           0
      0.848652  1.469031 20.062171            0           0           0
     -1.692793  5.864237 20.059967            0           0           0
      5.923746  1.469328 20.061971            0           0           0
      3.386013  5.864268 20.058800            0           0           0
      0.847779  1.467638 22.570878            0           0           0
     -1.690725  5.860997 22.566214            0           0           0
      5.922760  1.464067 22.570601            0           0           0
      3.367756  5.861077 22.564095            0           0           0
      1.692585  0.000962 24.847943            0           0           0
     -0.846423  4.392688 24.846152            0           0           0
      6.765597  0.004483 24.845317            0           0           0
      4.234153  4.396649 24.845287            0           0           0
      1.681952  0.000966 17.803607            0           0           0
     -0.855907  4.396093 17.803027            0           0           0
      6.757264  0.001320 17.802773            0           0           0
      4.219923  4.395704 17.802871            0           0           0
     -1.696268  8.789591 20.062002            0           0           0
      0.841619  4.394579 20.059165            0           0           0
      8.456218  0.002743 20.059819            0           0           0
      5.916884  4.394194 20.061947            0           0           0
     -1.690867  8.788657 22.570626            0           0           0
      0.854190  4.409930 22.565156            0           0           0
      8.458368  0.000060 22.565829            0           0           0
      5.918804  4.395273 22.570535            0           0           0
      1.690575  2.927993 24.846096            0           0           0
     -0.846346  7.329947 24.845477            0           0           0
      6.767893  2.931123 24.847914            0           0           0
      4.234333  7.326139 24.845178            0           0           0
      1.697520  2.937676 17.803100            0           0           0
     -0.840746  7.333292 17.802802            0           0           0
      6.772566  2.938047 17.803638            0           0           0
      4.235123  7.333526 17.802698            0           0           0
     -1.689481  2.927575 20.062213            0           0           0
     -4.226725  7.322852 20.061910            0           0           0
      3.387582  2.924113 20.060081            0           0           0
      0.848205  7.322569 20.058827            0           0           0
     -1.690145  2.932256 22.570871            0           0           0
      5.919514  7.325502 22.570514            0           0           0
      3.383890  2.930478 22.566127            0           0           0
      0.854773  7.311258 22.564279            0           0           0
      9.302932  1.461753 24.843134            0           0           0
     -3.377318  5.861070 24.842930            0           0           0
      4.227635  1.470283 24.842967            0           0           0
      1.693303  5.861962 24.877105            0           0           0
      4.233595  1.455666 17.803171            0           0           0
      1.695681  5.851410 17.801701            0           0           0
      9.308754  1.456850 17.803245            0           0           0
      6.770205  5.851436 17.803053            0           0           0
[...]
      3.490391  2.855060 14.923732            0           0           0
      0.952792  7.250313 14.923828            0           0           0
      0.857316  1.595223 14.923632            0           0           0
     -1.680318  5.990306 14.923805            0           0           0
      5.932403  1.595235 14.923634            0           0           0
      3.394832  5.990351 14.923879            0           0           0
      0.727309  4.339936 14.923776            0           0           0
     -1.810241  8.735096 14.923648            0           0           0
      5.802403  4.339920 14.923604            0           0           0
      3.264972  8.735092 14.923864            0           0           0
     -0.000008  2.930095 13.787297            0           0           0
     -2.537575  7.325283 13.787283            0           0           0
      5.075111  2.930095 13.787286            0           0           0
      2.537570  7.325289 13.787306            0           0           0
      1.695116  5.863818 25.908721     0.001648    0.001777    0.999997

[...]

   3 f  =   28.911036 THz   181.653395 2PiTHz  964.368320 cm-1   119.566476 meV
             X         Y         Z           dx          dy          dz
      1.691542  0.000370 21.314567            0           0           0
     -0.849954  4.397105 21.310203            0           0           0
      6.770043  0.003150 21.309770            0           0           0
      4.229855  4.391207 21.309819            0           0           0
      1.695632  2.928164 21.310200            0           0           0
     -0.849309  7.324430 21.309906            0           0           0
      6.767435  2.930795 21.314565            0           0           0
      4.230654  7.330319 21.309679            0           0           0
     -0.844123  1.467049 21.313813            0           0           0
      6.765112  5.860083 21.313657            0           0           0
      4.230891  1.462888 21.313707            0           0           0
      1.692263  5.860113 21.301275            0           0           0
      0.848652  1.469031 20.062171            0           0           0
     -1.692793  5.864237 20.059967            0           0           0
      5.923746  1.469328 20.061971            0           0           0
      3.386013  5.864268 20.058800            0           0           0
      0.847779  1.467638 22.570878            0           0           0
     -1.690725  5.860997 22.566214            0           0           0
      5.922760  1.464067 22.570601            0           0           0
      3.367756  5.861077 22.564095            0           0           0
      1.692585  0.000962 24.847943            0           0           0
     -0.846423  4.392688 24.846152            0           0           0
      6.765597  0.004483 24.845317            0           0           0
      4.234153  4.396649 24.845287            0           0           0
      1.681952  0.000966 17.803607            0           0           0
     -0.855907  4.396093 17.803027            0           0           0
      6.757264  0.001320 17.802773            0           0           0
      4.219923  4.395704 17.802871            0           0           0
     -1.696268  8.789591 20.062002            0           0           0
      0.841619  4.394579 20.059165            0           0           0
      8.456218  0.002743 20.059819            0           0           0
      5.916884  4.394194 20.061947            0           0           0
     -1.690867  8.788657 22.570626            0           0           0
      0.854190  4.409930 22.565156            0           0           0
      8.458368  0.000060 22.565829            0           0           0
      5.918804  4.395273 22.570535            0           0           0
      1.690575  2.927993 24.846096            0           0           0
     -0.846346  7.329947 24.845477            0           0           0
      6.767893  2.931123 24.847914            0           0           0
      4.234333  7.326139 24.845178            0           0           0
      1.697520  2.937676 17.803100            0           0           0
     -0.840746  7.333292 17.802802            0           0           0
      6.772566  2.938047 17.803638            0           0           0
      4.235123  7.333526 17.802698            0           0           0
     -1.689481  2.927575 20.062213            0           0           0
     -4.226725  7.322852 20.061910            0           0           0
      3.387582  2.924113 20.060081            0           0           0
      0.848205  7.322569 20.058827            0           0           0
     -1.690145  2.932256 22.570871            0           0           0
      5.919514  7.325502 22.570514            0           0           0
      3.383890  2.930478 22.566127            0           0           0
      0.854773  7.311258 22.564279            0           0           0
      9.302932  1.461753 24.843134            0           0           0
     -3.377318  5.861070 24.842930            0           0           0
      4.227635  1.470283 24.842967            0           0           0
      1.693303  5.861962 24.877105            0           0           0
      4.233595  1.455666 17.803171            0           0           0
      1.695681  5.851410 17.801701            0           0           0
      9.308754  1.456850 17.803245            0           0           0
      6.770205  5.851436 17.803053            0           0           0
[...]
      3.490391  2.855060 14.923732            0           0           0
      0.952792  7.250313 14.923828            0           0           0
      0.857316  1.595223 14.923632            0           0           0
     -1.680318  5.990306 14.923805            0           0           0
      5.932403  1.595235 14.923634            0           0           0
      3.394832  5.990351 14.923879            0           0           0
      0.727309  4.339936 14.923776            0           0           0
     -1.810241  8.735096 14.923648            0           0           0
      5.802403  4.339920 14.923604            0           0           0
      3.264972  8.735092 14.923864            0           0           0
     -0.000008  2.930095 13.787297            0           0           0
     -2.537575  7.325283 13.787283            0           0           0
      5.075111  2.930095 13.787286            0           0           0
      2.537570  7.325289 13.787306            0           0           0
      1.695116  5.863818 25.908721     0.474883   -0.880049    0.000782

 Finite differences POTIM=  2.000000000000000E-002
 writing wavefunctions