 vasp.6.1.2 22Jul20 (build Aug 13 2020 05:42:33) complex

 executed on             LinuxIFC date 2024.09.26  06:11:06

 INCAR:
 POTCAR:    PAW_PBE Mo_sv 02Feb2006
 POTCAR:    PAW_PBE N 08Apr2002
 POTCAR:    PAW_PBE Si 05Jan2001
 POTCAR:    PAW_PBE Ni 02Aug2007
 POTCAR:    PAW_PBE O 08Apr2002
 POTCAR:    PAW_PBE Te 08Apr2002
 POTCAR:    PAW_PBE H 15Jun2001
|           W    W    AA    RRRRR   N    N  II  N    N   GGGG   !!!           |
|           W    W   A  A   R    R  NN   N  II  NN   N  G    G  !!!           |
|           W    W  A    A  R    R  N N  N  II  N N  N  G       !!!           |
|           W WW W  AAAAAA  RRRRR   N  N N  II  N  N N  G  GGG   !            |
|           WW  WW  A    A  R   R   N   NN  II  N   NN  G    G                |
|           W    W  A    A  R    R  N    N  II  N    N   GGGG   !!!           |
|     You use a magnetic or noncollinear calculation, but did not specify     |
|     the initial magnetic moment with the MAGMOM tag. Note that a            |
|     default of 1 will be used for all atoms. This ferromagnetic setup       |
|     may break the symmetry of the crystal, in particular it may rule        |
|     out finding an antiferromagnetic solution. Thence, we recommend         |
|     setting the initial magnetic moment manually or verifying carefully     |
|     that this magnetic setup is desired.                                    |

   TITEL  = PAW_PBE Mo_sv 02Feb2006
   POMASS =   95.940; ZVAL   =   14.000    mass and valenz
   ENMAX  =  242.676; ENMIN  =  182.007 eV

   TITEL  = PAW_PBE N 08Apr2002
   POMASS =   14.001; ZVAL   =    5.000    mass and valenz
   ENMAX  =  400.000; ENMIN  =  300.000 eV

   TITEL  = PAW_PBE Si 05Jan2001
   POMASS =   28.085; ZVAL   =    4.000    mass and valenz
   ENMAX  =  245.345; ENMIN  =  184.009 eV

   TITEL  = PAW_PBE Ni 02Aug2007
   POMASS =   58.690; ZVAL   =   10.000    mass and valenz
   ENMAX  =  269.532; ENMIN  =  202.149 eV

[...]

   TITEL  = PAW_PBE Te 08Apr2002
   POMASS =  127.600; ZVAL   =    6.000    mass and valenz
   ENMAX  =  174.982; ENMIN  =  131.236 eV

   TITEL  = PAW_PBE H 15Jun2001
   POMASS =    1.000; ZVAL   =    1.000    mass and valenz
   ENMAX  =  250.000; ENMIN  =  200.000 eV

 Optimization of the real space projectors (new method)

 maximal supplied QI-value         = 15.12
 optimisation between [QCUT,QGAM] = [ 11.64, 23.28] = [ 37.95,151.78] Ry
 Optimized for a Real-space Cutoff    1.49 Angstroem

   l    n(q)    QCUT    max X(q) W(low)/X(q) W(high)/X(q)  e(spline)
   0     10    11.641     3.559    0.16E-04    0.28E-04    0.20E-06
   0     10    11.641    20.730    0.39E-04    0.26E-04    0.22E-06
   1     10    11.641     3.279    0.77E-06    0.52E-05    0.27E-07
   1     10    11.641     4.693    0.12E-03    0.32E-04    0.29E-06
   2      9    11.641    67.616    0.38E-03    0.20E-03    0.10E-05
   2      9    11.641    62.420    0.39E-03    0.20E-03    0.10E-05
 Optimization of the real space projectors (new method)

[...]

   l    n(q)    QCUT    max X(q) W(low)/X(q) W(high)/X(q)  e(spline)
   0      9    11.539   224.858    0.12E-03    0.25E-03    0.11E-06
   0      9    11.539   205.313    0.12E-03    0.25E-03    0.11E-06
   1      8    11.539   119.695    0.27E-03    0.88E-04    0.15E-06
   1      8    11.539    84.282    0.27E-03    0.87E-04    0.15E-06
   2      8    11.539     5.599    0.91E-04    0.16E-03    0.46E-07
 Optimization of the real space projectors (new method)

 maximal supplied QI-value         = 34.20
 optimisation between [QCUT,QGAM] = [ 11.63, 23.26] = [ 37.87,151.49] Ry
 Optimized for a Real-space Cutoff    1.14 Angstroem

   l    n(q)    QCUT    max X(q) W(low)/X(q) W(high)/X(q)  e(spline)
   0      8    11.629    19.460    0.27E-03    0.65E-03    0.17E-06
   0      8    11.629    12.209    0.25E-03    0.62E-03    0.16E-06
   1      7    11.629     4.655    0.29E-03    0.85E-04    0.19E-06
  PAW_PBE Mo_sv 02Feb2006               :
  PAW_PBE N 08Apr2002                   :
  PAW_PBE Si 05Jan2001                  :
  PAW_PBE Ni 02Aug2007                  :
  PAW_PBE O 08Apr2002                   :
  PAW_PBE Te 08Apr2002                  :
  PAW_PBE H 15Jun2001                   :

 POSCAR: Converted by xsd2pos.py
  positions in direct lattice
  velocities in cartesian coordinates
 exchange correlation table for  LEXCH =        8
   RHO(1)=    0.500       N(1)  =     2000
   RHO(2)=  100.500       N(2)  =     4000

 ion  position               nearest neighbor table
   1  0.167  0.000  0.610-  29 2.10  46 2.11  13 2.11  50 2.11  33 2.11  17 2.11   8 2.93   5 2.93
                             6 2.93   9 2.93  11 2.93  10 2.93
   2  0.166  0.500  0.610-  45 2.10  14 2.10  30 2.10  18 2.10  49 2.11  34 2.12   7 2.93  10 2.93
                             6 2.93   9 2.93  12 2.93   5 2.94
   3  0.667  0.000  0.610-  31 2.10  15 2.10  35 2.10  19 2.11  48 2.11  52 2.12   8 2.93   7 2.93
                             9 2.93  11 2.93  12 2.93   6 2.94
   4  0.667  0.500  0.610-  32 2.10  47 2.10  51 2.10  36 2.11  16 2.11  20 2.12   5 2.93   7 2.93
                            11 2.93  10 2.93  12 2.93   8 2.94
   5  0.334  0.333  0.610-  13 2.10  47 2.10  51 2.10  17 2.11  30 2.11  34 2.12   4 2.93   1 2.93
                            11 2.93   9 2.93  12 2.93   2 2.94
   6  0.333  0.833  0.610-  14 2.10  29 2.10  18 2.10  33 2.11  48 2.11  52 2.12   2 2.93   1 2.93
                            10 2.93  11 2.93  12 2.93   3 2.94
   7  0.833  0.333  0.610-  15 2.10  32 2.11  45 2.11  36 2.11  19 2.11  49 2.11   2 2.93   3 2.93
                             4 2.93  10 2.93   9 2.93  11 2.93
   8  0.834  0.834  0.610-  46 2.10  31 2.10  16 2.10  35 2.10  50 2.11  20 2.12   1 2.93   9 2.93
                             3 2.93  10 2.93  12 2.93   4 2.94
   9  0.000  0.167  0.610-  45 2.10  13 2.11  35 2.11  31 2.11  17 2.11  49 2.11   8 2.93   3 2.93
                             1 2.93   5 2.93   2 2.93   7 2.93
  10  1.000  0.667  0.610-  46 2.10  32 2.11  14 2.11  18 2.11  36 2.11  50 2.11   2 2.93   6 2.93
                             7 2.93   8 2.93   4 2.93   1 2.93
  11  0.500  0.166  0.610-  47 2.10  15 2.11  29 2.11  51 2.11  33 2.11  19 2.11   5 2.93   4 2.93
                             6 2.93   3 2.93   1 2.93   7 2.93
  12  0.500  0.667  0.610-  48 2.10  20 2.10  52 2.10  34 2.10  16 2.10  30 2.10   5 2.93   4 2.93
                             2 2.93   6 2.93   3 2.93   8 2.93
  13  0.167  0.167  0.574-  65 1.76   5 2.10   9 2.11   1 2.11
  14  0.167  0.667  0.574-  66 1.76   6 2.10   2 2.10  10 2.11
  15  0.667  0.167  0.574-  67 1.76   7 2.10   3 2.10  11 2.11
  16  0.667  0.667  0.574-  68 1.76  12 2.10   8 2.10   4 2.11
  17  0.167  0.167  0.646-  61 1.74   5 2.11   9 2.11   1 2.11
  18  0.167  0.667  0.646-  62 1.74   2 2.10   6 2.10  10 2.11
  19  0.667  0.167  0.646-  63 1.74   3 2.11  11 2.11   7 2.11
  20  0.665  0.667  0.646-  64 1.71  12 2.10   8 2.12   4 2.12
  21  0.167  0.000  0.711-  69 1.77  78 1.77  61 1.77
  22  0.166  0.500  0.711-  70 1.75  62 1.78  77 1.78
  23  0.667  0.001  0.711-  80 1.75  71 1.78  63 1.78
  24  0.667  0.500  0.711-  64 1.75  79 1.78  72 1.78
  25  0.166  0.000  0.510-  65 1.76  82 1.76  73 1.77
  26  0.166  0.500  0.510-  66 1.76  81 1.76  74 1.77
  27  0.666  0.000  0.510-  67 1.76  84 1.76  75 1.77
  28  0.666  0.500  0.510-  68 1.76  83 1.76  76 1.77
  29  0.333  1.000  0.574-  73 1.76   1 2.10   6 2.10  11 2.11
  30  0.333  0.500  0.574-  74 1.76  12 2.10   2 2.10   5 2.11
  31  0.833  0.000  0.574-  75 1.76   3 2.10   8 2.10   9 2.11
  32  0.833  0.500  0.574-  76 1.76   4 2.10   7 2.11  10 2.11
  33  0.333  1.000  0.646-  69 1.74   6 2.11  11 2.11   1 2.11
  34  0.335  0.502  0.646-  70 1.71  12 2.10   5 2.12   2 2.12
  35  0.833  0.000  0.646-  71 1.74   8 2.10   3 2.10   9 2.11
  36  0.833  0.500  0.646-  72 1.74  10 2.11   4 2.11   7 2.11
  37  0.333  0.333  0.711-  70 1.75  79 1.78  61 1.78
  38  0.334  0.834  0.711-  80 1.75  62 1.78  69 1.78
  39  0.833  0.333  0.711-  72 1.77  63 1.77  77 1.77
  40  0.834  0.833  0.711-  64 1.75  71 1.78  78 1.78
  41  0.334  0.334  0.510-  83 1.76  74 1.76  65 1.77
  42  0.334  0.834  0.510-  84 1.76  73 1.76  66 1.77
  43  0.834  0.334  0.510-  81 1.76  76 1.76  67 1.77
  44  0.834  0.834  0.510-  82 1.76  75 1.76  68 1.77
  45  0.000  0.333  0.574-  81 1.76   9 2.10   2 2.10   7 2.11
  46  0.000  0.833  0.574-  82 1.76  10 2.10   8 2.10   1 2.11
  47  0.500  0.333  0.574-  83 1.76  11 2.10   4 2.10   5 2.10
  48  0.500  0.833  0.574-  84 1.76  12 2.10   3 2.11   6 2.11
  49  0.000  0.334  0.646-  77 1.74   2 2.11   9 2.11   7 2.11
  50  1.000  0.833  0.646-  78 1.74   8 2.11   1 2.11  10 2.11
  51  0.500  0.333  0.646-  79 1.74   5 2.10   4 2.10  11 2.11
  52  0.500  0.832  0.646-  80 1.71  12 2.10   3 2.12   6 2.12
  53  1.000  0.166  0.711-  71 1.77  61 1.77  77 1.77
  54  0.001  0.667  0.711-  62 1.77  78 1.77  72 1.77
  55  0.500  0.167  0.711-  79 1.77  63 1.77  69 1.77
  56  0.500  0.667  0.712- 125 1.03  64 1.88  80 1.88  70 1.88
  57  0.500  0.166  0.510-  73 1.76  67 1.76  83 1.77
  58  0.500  0.666  0.510-  74 1.76  68 1.76  84 1.77
  59  1.000  0.166  0.510-  75 1.76  65 1.76  81 1.77
  60  1.000  0.666  0.510-  76 1.76  66 1.76  82 1.77
  61  0.166  0.165  0.696-  17 1.74  21 1.77  53 1.77  37 1.78  70 2.87  69 2.91  78 2.92  71 2.92
                            77 2.94  79 2.94
  62  0.166  0.667  0.696-  18 1.74  54 1.77  38 1.78  22 1.78  78 2.92  72 2.92  70 2.93  80 2.94
                            77 2.94  69 2.94
  63  0.667  0.168  0.696-  19 1.74  39 1.77  55 1.77  23 1.78  80 2.87  72 2.91  77 2.92  79 2.92
                            69 2.94  71 2.94
  64  0.676  0.667  0.695-  20 1.71  40 1.75  24 1.75  56 1.88  78 2.87  72 2.87  71 2.94  79 2.94
                            70 3.08  80 3.08
  65  0.167  0.167  0.524-  13 1.76  25 1.76  59 1.76  41 1.77  74 2.92  73 2.92  81 2.92  83 2.92
                            75 2.94  82 2.94
  66  0.167  0.667  0.524-  14 1.76  26 1.76  60 1.76  42 1.77  82 2.92  73 2.92  84 2.92  74 2.92
                            76 2.94  81 2.94
  67  0.667  0.167  0.524-  15 1.76  27 1.76  57 1.76  43 1.77  83 2.92  76 2.92  81 2.92  75 2.92
                            84 2.94  73 2.94
  68  0.667  0.667  0.524-  16 1.76  28 1.76  58 1.76  44 1.77  75 2.92  84 2.92  76 2.92  82 2.92
                            74 2.94  83 2.94
  69  0.333  0.001  0.696-  33 1.74  21 1.77  55 1.77  38 1.78  80 2.87  78 2.91  61 2.91  79 2.92
                            63 2.94  62 2.94
  70  0.325  0.491  0.695-  34 1.71  37 1.75  22 1.75  56 1.88  77 2.87  61 2.87  62 2.93  79 2.94
                            64 3.08  80 3.08
  71  0.834  0.001  0.696-  35 1.74  53 1.77  23 1.78  40 1.78  77 2.92  61 2.92  80 2.93  64 2.94
                            63 2.94  78 2.94
  72  0.835  0.500  0.696-  36 1.74  39 1.77  54 1.77  24 1.78  64 2.87  63 2.91  77 2.91  62 2.92
                            78 2.94  79 2.94
  73  0.333  1.000  0.524-  29 1.76  57 1.76  42 1.76  25 1.77  82 2.92  66 2.92  83 2.92  65 2.92
                            84 2.94  67 2.94
[...]
   -.164E+02 -.293E-01 0.479E+03   0.167E+02 0.819E-02 -.493E+03   -.229E+00 0.211E-01 0.145E+02   -.188E-04 0.958E-06 0.143E-03
   -.164E+02 0.123E+00 0.479E+03   0.166E+02 -.165E+00 -.493E+03   -.219E+00 0.420E-01 0.145E+02   -.267E-04 -.125E-05 0.128E-03
   -.164E+02 -.161E+00 0.479E+03   0.166E+02 0.160E+00 -.493E+03   -.223E+00 0.871E-03 0.145E+02   -.178E-04 0.841E-05 0.126E-03
   -.166E+02 0.251E-01 0.479E+03   0.169E+02 -.537E-01 -.493E+03   -.257E+00 0.278E-01 0.145E+02   -.470E-05 -.177E-05 0.138E-03
   0.115E+00 -.507E+00 -.702E+02   -.291E-01 0.583E+00 0.714E+02   -.875E-01 -.767E-01 -.120E+01   -.390E-04 0.200E-04 -.774E-04
   0.100E+01 0.156E+01 -.702E+02   -.984E+00 -.172E+01 0.714E+02   -.191E-01 0.162E+00 -.120E+01   -.637E-05 -.152E-04 -.153E-03
   -.187E+00 -.504E+00 -.691E+02   0.344E+00 0.582E+00 0.702E+02   -.158E+00 -.777E-01 -.116E+01   0.309E-04 0.496E-04 -.115E-03
   -.360E+00 -.237E+00 -.702E+02   0.551E+00 0.252E+00 0.714E+02   -.193E+00 -.155E-01 -.120E+01   0.551E-04 -.225E-04 -.783E-04
   -.435E+00 0.370E+00 -.159E+04   0.450E+00 -.410E+00 0.159E+04   -.129E-01 0.387E-01 0.217E+01   -.490E-04 0.214E-04 -.457E-04
   -.119E+01 -.212E+01 -.158E+04   0.134E+01 0.238E+01 0.158E+04   -.143E+00 -.257E+00 0.418E+01   -.101E-04 -.127E-04 0.319E-04
   0.311E+00 0.518E+00 -.159E+04   -.283E+00 -.468E+00 0.159E+04   -.281E-01 -.507E-01 0.232E+01   0.276E-04 0.528E-04 -.822E-05
   0.578E+00 -.218E+00 -.159E+04   -.626E+00 0.214E+00 0.159E+04   0.460E-01 0.519E-02 0.217E+01   0.529E-04 -.253E-04 -.448E-04
   -.308E+01 0.212E+01 -.214E+04   0.392E+01 -.296E+01 0.215E+04   -.845E+00 0.836E+00 -.155E+02   0.375E-06 -.107E-04 0.152E-03
   0.336E+01 0.158E+01 -.214E+04   -.450E+01 -.189E+01 0.215E+04   0.113E+01 0.308E+00 -.155E+02   -.102E-04 0.460E-05 0.150E-03
   0.242E-03 0.943E-02 -.214E+04   0.686E-02 -.135E-01 0.215E+04   -.639E-02 0.442E-02 -.155E+02   0.131E-06 -.215E-06 0.129E-03
   -.336E+00 -.374E+01 -.214E+04   0.642E+00 0.489E+01 0.215E+04   -.302E+00 -.115E+01 -.155E+02   0.919E-05 0.688E-05 0.150E-03
   0.828E+01 0.144E+02 0.479E+03   -.842E+01 -.146E+02 -.493E+03   0.144E+00 0.213E+00 0.145E+02   0.586E-05 0.131E-05 0.138E-03
   0.833E+01 0.141E+02 0.479E+03   -.847E+01 -.143E+02 -.493E+03   0.153E+00 0.171E+00 0.145E+02   0.507E-05 0.179E-04 0.128E-03
   0.821E+01 0.143E+02 0.479E+03   -.833E+01 -.144E+02 -.493E+03   0.132E+00 0.191E+00 0.145E+02   0.121E-04 0.145E-04 0.142E-03
   0.808E+01 0.143E+02 0.479E+03   -.819E+01 -.144E+02 -.493E+03   0.114E+00 0.190E+00 0.145E+02   0.155E-04 0.215E-04 0.127E-03
   0.148E-01 0.512E+00 -.703E+02   -.103E+00 -.479E+00 0.715E+02   0.892E-01 -.324E-01 -.120E+01   -.439E-04 -.263E-04 -.736E-04
   -.464E+00 0.265E+00 -.702E+02   0.483E+00 -.174E+00 0.714E+02   -.189E-01 -.914E-01 -.120E+01   0.457E-04 0.296E-04 -.761E-04
   -.240E+00 0.535E+00 -.692E+02   0.216E+00 -.504E+00 0.703E+02   0.254E-01 -.316E-01 -.116E+01   0.211E-04 -.384E-04 -.124E-03
   0.885E+00 -.150E+01 -.701E+02   -.104E+01 0.176E+01 0.713E+02   0.156E+00 -.267E+00 -.121E+01   -.131E-04 0.215E-04 -.150E-03
   -.426E+00 -.309E+00 -.159E+04   0.434E+00 0.332E+00 0.159E+04   -.601E-02 -.218E-01 0.217E+01   -.460E-04 -.322E-04 -.497E-04
   0.560E+00 0.253E+00 -.159E+04   -.608E+00 -.261E+00 0.159E+04   0.459E-01 0.803E-02 0.217E+01   0.513E-04 0.281E-04 -.464E-04
   0.247E+00 -.447E+00 -.159E+04   -.213E+00 0.378E+00 0.159E+04   -.343E-01 0.700E-01 0.232E+01   0.248E-04 -.451E-04 0.235E-05
   -.122E+01 0.216E+01 -.158E+04   0.137E+01 -.243E+01 0.158E+04   -.146E+00 0.277E+00 0.419E+01   -.957E-05 0.147E-04 0.276E-04
   0.760E-01 0.143E+00 -.214E+04   0.208E-01 0.236E-01 0.215E+04   -.956E-01 -.165E+00 -.153E+02   -.163E-05 -.213E-05 0.130E-03
   -.104E+00 0.908E-03 -.214E+04   -.967E-01 -.379E-02 0.215E+04   0.200E+00 0.373E-02 -.153E+02   0.250E-05 0.744E-06 0.131E-03
   0.445E-01 -.911E-01 -.214E+04   0.547E-01 -.854E-01 0.215E+04   -.976E-01 0.176E+00 -.153E+02   -.782E-06 0.219E-05 0.132E-03
   0.103E+00 0.105E+00 -.209E+04   -.127E+00 -.123E+00 0.208E+04   0.231E-01 0.171E-01 0.892E+01   -.101E-06 0.126E-06 0.112E-03
   0.819E+01 -.142E+02 0.479E+03   -.826E+01 0.143E+02 -.493E+03   0.873E-01 -.193E+00 0.145E+02   0.870E-05 -.176E-04 0.137E-03
   0.825E+01 -.143E+02 0.479E+03   -.834E+01 0.145E+02 -.494E+03   0.980E-01 -.216E+00 0.145E+02   0.319E-05 -.790E-05 0.131E-03
   0.816E+01 -.144E+02 0.479E+03   -.824E+01 0.146E+02 -.493E+03   0.852E-01 -.233E+00 0.145E+02   0.596E-05 -.190E-04 0.142E-03
   0.837E+01 -.142E+02 0.479E+03   -.848E+01 0.144E+02 -.493E+03   0.122E+00 -.212E+00 0.145E+02   0.110E-04 -.171E-04 0.140E-03
[...]
   -.694E+02 0.395E+02 0.117E+04   0.613E+02 -.482E+02 -.115E+04   0.809E+01 0.872E+01 -.160E+02   0.187E-04 0.157E-05 0.703E-05
   0.536E+00 -.798E+02 0.117E+04   0.111E+02 0.772E+02 -.115E+04   -.116E+02 0.265E+01 -.161E+02   0.135E-05 0.267E-04 0.112E-04
   0.546E+00 -.799E+02 0.117E+04   0.111E+02 0.772E+02 -.115E+04   -.116E+02 0.265E+01 -.160E+02   0.241E-05 0.172E-04 0.110E-04
   0.491E+00 -.799E+02 0.117E+04   0.111E+02 0.772E+02 -.115E+04   -.116E+02 0.265E+01 -.161E+02   -.137E-04 0.149E-04 0.167E-04
   0.431E+00 -.799E+02 0.117E+04   0.112E+02 0.773E+02 -.115E+04   -.116E+02 0.264E+01 -.160E+02   0.234E-04 0.796E-04 -.319E-04
   0.690E+02 0.404E+02 0.117E+04   -.725E+02 -.290E+02 -.115E+04   0.351E+01 -.114E+02 -.160E+02   -.770E-04 -.150E-04 -.231E-04
   0.690E+02 0.404E+02 0.117E+04   -.725E+02 -.290E+02 -.115E+04   0.350E+01 -.114E+02 -.161E+02   -.110E-04 -.591E-05 0.352E-05
   0.689E+02 0.404E+02 0.117E+04   -.724E+02 -.290E+02 -.115E+04   0.350E+01 -.114E+02 -.161E+02   -.133E-04 -.142E-04 0.119E-04
   0.689E+02 0.403E+02 0.117E+04   -.724E+02 -.289E+02 -.115E+04   0.350E+01 -.114E+02 -.160E+02   -.259E-04 -.232E-04 0.156E-04
   0.305E-01 0.175E-01 0.175E+04   -.332E-01 -.214E-01 -.175E+04   -.439E-03 0.911E-03 -.525E-01   -.841E-05 0.137E-04 0.106E-03
   -.556E-02 0.262E-01 0.175E+04   0.338E-02 -.246E-01 -.175E+04   0.389E-02 -.405E-02 -.509E-01   0.785E-05 0.105E-04 0.984E-04
   0.277E-02 0.103E-01 0.175E+04   0.491E-03 -.108E-01 -.175E+04   -.391E-02 -.922E-03 -.550E-01   -.112E-04 -.825E-05 0.113E-03
   -.289E-03 -.806E-02 0.175E+04   0.603E-03 0.994E-02 -.175E+04   -.174E-02 -.263E-02 -.470E-01   0.125E-04 -.161E-04 0.106E-03
   -.876E-01 -.908E-01 -.491E+03   0.957E-01 0.994E-01 0.499E+03   -.130E-01 -.134E-01 -.707E+01   -.173E-07 0.551E-07 0.552E-04
   -.100E+00 -.976E-01 -.481E+02   0.616E-13 -.119E-12 -.322E-10   0.123E+00 0.133E+00 0.476E+02   -.263E-05 -.225E-05 0.688E-02

 POSITION                                       TOTAL-FORCE (eV/Angst)
      1.69154      0.00037     21.31457         0.000385      0.000017     -0.000720
     -0.84995      4.39711     21.31020         0.000211      0.000513     -0.000083
      6.77004      0.00315     21.30977         0.000268     -0.000287      0.000792
      4.22985      4.39121     21.30982        -0.000069      0.000177      0.001068
      1.69563      2.92816     21.31020         0.000565      0.000306      0.000072
     -0.84931      7.32443     21.30991         0.000223      0.000051      0.000751
      6.76743      2.93080     21.31456         0.000055      0.000328     -0.000615
      4.23065      7.33032     21.30968        -0.000402      0.000122      0.001099
     -0.84412      1.46705     21.31381         0.000132     -0.000207     -0.000212
      6.76511      5.86008     21.31366         0.000084      0.000185      0.000795
      4.23089      1.46289     21.31371         0.000197      0.000136      0.000700
      1.69226      5.86011     21.30127         0.000047      0.000306      0.002803
      0.84865      1.46903     20.06217         0.001356      0.000724     -0.000020
     -1.69279      5.86424     20.05997         0.000035      0.000307     -0.001124
      5.92375      1.46933     20.06197         0.001365     -0.000459     -0.000138
      3.38601      5.86427     20.05880        -0.001238      0.000074      0.000906
      0.84778      1.46764     22.57088         0.000431      0.000704      0.000569
     -1.69073      5.86100     22.56621         0.001062      0.000112      0.001662
      5.92276      1.46407     22.57060         0.000918     -0.000306     -0.000085
      3.36776      5.86108     22.56410         0.001300      0.000121      0.002469
      1.69258      0.00096     24.84794        -0.000084     -0.000037      0.001720
     -0.84642      4.39269     24.84615         0.000017      0.000091      0.000838
      6.76560      0.00448     24.84532         0.000013     -0.000253      0.002035
      4.23415      4.39665     24.84529         0.000055     -0.000437      0.001881
      1.68195      0.00097     17.80361         0.000360      0.000423      0.002019
     -0.85591      4.39609     17.80303        -0.000006      0.000484     -0.001477
      6.75726      0.00132     17.80277        -0.000327     -0.000056     -0.000789
      4.21992      4.39570     17.80287        -0.000167     -0.000401     -0.000384
     -1.69627      8.78959     20.06200         0.000342     -0.000772      0.000075
      0.84162      4.39458     20.05916         0.000727      0.001049     -0.000800
      8.45622      0.00274     20.05982        -0.000082     -0.000205     -0.000517
      5.91688      4.39419     20.06195        -0.000838     -0.000026     -0.000049
     -1.69087      8.78866     22.57063         0.000566     -0.000389      0.001582
      0.85419      4.40993     22.56516        -0.000696     -0.001434     -0.001125
      8.45837      0.00006     22.56583        -0.000265     -0.000185      0.002122
      5.91880      4.39527     22.57053        -0.000254      0.000084      0.001656
      1.69058      2.92799     24.84610        -0.000514      0.000022      0.000930
     -0.84635      7.32995     24.84548        -0.000167      0.000056      0.001725
      6.76789      2.93112     24.84791         0.000510      0.000076      0.001397
      4.23433      7.32614     24.84518         0.000165      0.000240      0.002285
      1.69752      2.93768     17.80310         0.000251      0.000317     -0.001198
     -0.84075      7.33329     17.80280        -0.000521      0.000725     -0.001218
      6.77257      2.93805     17.80364        -0.000082     -0.000062      0.001784
      4.23512      7.33353     17.80270        -0.000567     -0.000652     -0.000092
     -1.68948      2.92758     20.06221         0.000319      0.001283     -0.000397
     -4.22672      7.32285     20.06191        -0.001100      0.000549     -0.000065
      3.38758      2.92411     20.06008         0.000320      0.000331     -0.000583
      0.84821      7.32257     20.05883         0.000603     -0.000717     -0.000589
     -1.69015      2.93226     22.57087         0.000649      0.000686      0.000015
      5.91951      7.32550     22.57051        -0.000560      0.000561      0.001209
      3.38389      2.93048     22.56613        -0.000266      0.000675      0.001508
      0.85477      7.31126     22.56428        -0.000432      0.001199      0.001546
      9.30293      1.46175     24.84313         0.000037      0.000271     -0.000174
     -3.37732      5.86107     24.84293         0.000838      0.000579      0.001012
      4.22763      1.47028     24.84297         0.000521      0.000529      0.000545
      1.69330      5.86196     24.87710        -0.001300     -0.001637      0.002188
      4.23359      1.45567     17.80317         0.000494      0.000301      0.001531
      1.69568      5.85141     17.80170        -0.000013      0.000318     -0.002442
      9.30875      1.45685     17.80324         0.000034      0.000209      0.001305
      6.77021      5.85144     17.80305        -0.000433     -0.000023      0.001474
[...]
      3.49039      2.85506     14.92373         0.000411     -0.000266     -0.000206
      0.95279      7.25031     14.92383         0.000706      0.000653     -0.000552
      0.85732      1.59522     14.92363         0.000100      0.000424     -0.000015
     -1.68032      5.99031     14.92381        -0.000347      0.000573      0.000006
      5.93240      1.59524     14.92363         0.000106      0.000504      0.000261
      3.39483      5.99035     14.92388        -0.001309      0.000286     -0.000617
      0.72731      4.33994     14.92378        -0.000069     -0.000410      0.000697
     -1.81024      8.73510     14.92365        -0.000116     -0.000454     -0.000444
      5.80240      4.33992     14.92360         0.000471     -0.000331     -0.000198
      3.26497      8.73509     14.92386         0.000280     -0.001201     -0.000447
     -0.00001      2.93010     13.78730        -0.003306     -0.003209     -0.016635
     -2.53757      7.32528     13.78728         0.001539     -0.002758     -0.013236
      5.07511      2.93009     13.78729        -0.000851     -0.001774     -0.017906
      2.53757      7.32529     13.78731        -0.001595     -0.001045     -0.013050
      1.69512      5.86382     25.90872        -0.005015     -0.005097      0.002231
    total drift:                                0.023167      0.035151     -0.424813

  FREE ENERGIE OF THE ION-ELECTRON SYSTEM (eV)
  free  energy   TOTEN  =      -916.52514501 eV

  energy  without entropy=     -916.52475929  energy(sigma->0) =     -916.52495215

 writing wavefunctions

 total charge

[...]

 magnetization (x)

# of ion       s       p       d       tot
    1        0.000   0.000   0.000   0.000
    2        0.000   0.000   0.000   0.000
    3        0.000   0.000   0.000   0.000
    4        0.000   0.000   0.000   0.000
    5        0.000   0.000   0.000   0.000
    6        0.000   0.000   0.000   0.000
    7        0.000   0.000   0.000   0.000
    8        0.000   0.000   0.000   0.000
    9        0.000   0.000   0.001   0.001
   10        0.000   0.000   0.001   0.001
   11        0.000   0.000   0.000   0.000
   12        0.000   0.000   0.000   0.000
   13        0.000   0.000   0.000   0.000
   14        0.000   0.000   0.000   0.000
   15        0.000   0.000   0.000   0.000
   16        0.000   0.000   0.000   0.000
   17       -0.000  -0.000   0.000  -0.000
   18       -0.000  -0.000   0.000  -0.000
   19       -0.000  -0.000   0.000  -0.000
   20       -0.000  -0.000   0.000  -0.000
   21       -0.000  -0.000   0.000  -0.000
   22       -0.000  -0.000   0.000  -0.000
   23       -0.000  -0.000   0.000  -0.000
   24       -0.000  -0.000   0.000  -0.000
   25        0.001   0.003   0.000   0.003
   26        0.001   0.003   0.000   0.003
   27        0.001   0.003   0.000   0.003
   28        0.001   0.003   0.000   0.003
   29        0.000   0.000   0.000   0.000
   30        0.000   0.000   0.000   0.000
   31        0.000   0.000   0.000   0.000
   32        0.000   0.000   0.000   0.000
   33       -0.000  -0.000   0.000  -0.000
   34       -0.000  -0.000   0.000  -0.000
   35       -0.000  -0.000   0.000  -0.000
   36       -0.000  -0.000   0.000  -0.000
   37       -0.000  -0.000   0.000  -0.000
   38       -0.000  -0.000   0.000  -0.000
   39       -0.000  -0.000   0.000  -0.000
   40       -0.000  -0.000   0.000  -0.000
   41        0.001   0.003   0.000   0.003
   42        0.001   0.003   0.000   0.003
   43        0.001   0.003   0.000   0.003
   44        0.001   0.003   0.000   0.003
   45        0.000   0.000   0.000   0.000
   46        0.000   0.000   0.000   0.000
   47        0.000   0.000   0.000   0.000
   48        0.000   0.000   0.000   0.000
   49       -0.000  -0.000   0.000  -0.000
   50       -0.000  -0.000   0.000  -0.000
   51       -0.000  -0.000   0.000  -0.000
   52        0.000  -0.000   0.000  -0.000
   53       -0.000  -0.000   0.000  -0.000
   54       -0.000  -0.000   0.000  -0.000
   55       -0.000  -0.000   0.000  -0.000
   56       -0.000   0.000   0.000  -0.000
   57        0.001   0.003   0.000   0.003
   58        0.001   0.003   0.000   0.003
   59        0.001   0.003   0.000   0.003
   60        0.001   0.003   0.000   0.003
[...]
  111        0.007   0.105   0.000   0.112
  112        0.007   0.105   0.000   0.112
  113        0.007   0.105   0.000   0.112
  114        0.007   0.105   0.000   0.112
  115        0.007   0.105   0.000   0.112
  116        0.007   0.105   0.000   0.112
  117        0.007   0.105   0.000   0.112
  118        0.007   0.105   0.000   0.112
  119        0.007   0.105   0.000   0.112
  120        0.007   0.105   0.000   0.112
  121       -0.002   0.003   0.004   0.005
  122       -0.002   0.003   0.004   0.005
  123       -0.002   0.003   0.004   0.005
  124       -0.002   0.003   0.004   0.005
  125       -0.000  -0.000   0.000  -0.000
tot          0.214   2.953  20.098  23.265